Minimize
  0.01517 x(2) + 0.00432 x(5) + 0.00432 x(11) + 0.01517 x(12)
Subject To
 con1: x(9) + x(10) = 1
 con2: x(7) + x(8) = 1
 con3: x(20) - x(21) - x(22) = 0
 con4: - x(5) + x(4) - x(6) - x(19) = 0
 con5: - x(2) + x(1) - x(3) - x(18) = 0
 con6: x(15) - x(16) - x(17) = 0
 con7: x(11) + x(12) + x(13) + x(14) = 300
 QCP_row_for_con8: 0.333 x(11) - x(15) + [ x(5) * x(9) ] = 0
 QCP_row_for_con9: 0.333 x(11) + [ x(5) * x(10) - x(8) * x(1) ]
   = 0
 QCP_row_for_con10:  x(21) + 0.333 x(13) + [ x(7) * x(3) ] = 30
 QCP_row_for_con11: 0.333 x(13) + [ x(10) * x(6) + x(8) * x(3) ]
   = 50
 QCP_row_for_con12: x(16) + 0.333 x(13) + [ x(9) * x(6) ] = 30
 QCP_row_for_con13: 0.333 x(11) + [ - x(7) * x(1) ] = 0
 QCP_row_for_con14: 0.333 x(12) - x(20) + [ x(2) * x(7) ] = 0
 QCP_row_for_con15: - 0.333 x(12) + [ - x(9) * x(4) ] = 0
 QCP_row_for_con16: 0.333 x(12) + [ x(2) * x(8) - x(10) * x(4) ]
   = 0
Bounds
 x(2) <= 300
 x(5) <= 300
 x(11) <= 300
 x(12) <= 300
 x(9) <= 1
 x(10) <= 1
 x(7) <= 1
 x(8) <= 1
 x(20) <= 300
 x(21) <= 300
 x(22) <= 300
 x(4) <= 300
 x(6) <= 300
 x(19) <= 300
 x(1) <= 300
 x(3) <= 300
 x(18) <= 300
 x(15) <= 300
 x(16) <= 300
 x(17) <= 300
 x(13) <= 300
 x(14) <= 300
End
